language Essence 1.3

letting blksize_delta be
        function(1 --> 7, 2 --> 7, 3 --> 7, 4 --> 7, 5 --> 7, 6 --> 7, 7 --> 7, 8 --> 7, 9 --> 7, 10 --> 8, 11 --> 7,
                 12 --> 8, 13 --> 7, 14 --> 7, 15 --> 7, 16 --> 7, 17 --> 8, 18 --> 7, 19 --> 7, 20 --> 7, 21 --> 7,
                 22 --> 7, 23 --> 7, 24 --> 7, 25 --> 7, 26 --> 7)
letting maxcars be
        function(1 --> 8, 2 --> 9, 3 --> 8, 4 --> 8, 5 --> 8, 6 --> 8, 7 --> 8, 8 --> 8, 9 --> 8, 10 --> 8, 11 --> 8,
                 12 --> 8, 13 --> 10, 14 --> 8, 15 --> 8, 16 --> 9, 17 --> 8, 18 --> 10, 19 --> 8, 20 --> 8, 21 --> 8,
                 22 --> 8, 23 --> 8, 24 --> 8, 25 --> 8, 26 --> 8)
letting n_cars be 228
letting n_classes be 28
letting n_options be 26
letting quantity be
        function(1 --> 8, 2 --> 8, 3 --> 11, 4 --> 8, 5 --> 8, 6 --> 8, 7 --> 8, 8 --> 8, 9 --> 9, 10 --> 8, 11 --> 8,
                 12 --> 8, 13 --> 8, 14 --> 8, 15 --> 8, 16 --> 8, 17 --> 8, 18 --> 8, 19 --> 8, 20 --> 8, 21 --> 8,
                 22 --> 8, 23 --> 8, 24 --> 8, 25 --> 8, 26 --> 8, 27 --> 8, 28 --> 8)
letting usage be
        relation((1, 21), (2, 25), (2, 26), (3, 5), (3, 13), (3, 21), (4, 10), (4, 15), (4, 22), (5, 3), (5, 4), (5, 5),
                 (5, 11), (5, 20), (5, 26), (6, 10), (6, 11), (6, 15), (6, 25), (7, 2), (7, 10), (7, 17), (8, 26),
                 (9, 4), (9, 18), (10, 3), (10, 6), (11, 13), (11, 18), (12, 23), (12, 24), (13, 8), (13, 25), (14, 6),
                 (14, 16), (15, 8), (15, 9), (15, 24), (16, 4), (16, 14), (17, 2), (17, 6), (17, 16), (18, 26), (19, 8),
                 (19, 11), (19, 21), (20, 5), (20, 16), (20, 23), (21, 5), (21, 8), (21, 10), (21, 12), (21, 20),
                 (22, 1), (22, 2), (22, 16), (22, 25), (23, 5), (23, 6), (23, 18), (24, 4), (24, 25), (24, 26), (25, 2),
                 (25, 6), (25, 11), (25, 12), (25, 18), (25, 25), (26, 8), (27, 2), (27, 3), (27, 16), (27, 18),
                 (27, 20), (28, 7), (28, 11), (28, 14), (28, 19))
$ Visualisation for usage
$  1 21
$  2 25
$  2 26
$  3  5
$  3 13
$  3 21
$  4 10
$  4 15
$  4 22
$  5  3
$  5  4
$  5  5
$  5 11
$  5 20
$  5 26
$  6 10
$  6 11
$  6 15
$  6 25
$  7  2
$  7 10
$  7 17
$  8 26
$  9  4
$  9 18
$ 10  3
$ 10  6
$ 11 13
$ 11 18
$ 12 23
$ 12 24
$ 13  8
$ 13 25
$ 14  6
$ 14 16
$ 15  8
$ 15  9
$ 15 24
$ 16  4
$ 16 14
$ 17  2
$ 17  6
$ 17 16
$ 18 26
$ 19  8
$ 19 11
$ 19 21
$ 20  5
$ 20 16
$ 20 23
$ 21  5
$ 21  8
$ 21 10
$ 21 12
$ 21 20
$ 22  1
$ 22  2
$ 22 16
$ 22 25
$ 23  5
$ 23  6
$ 23 18
$ 24  4
$ 24 25
$ 24 26
$ 25  2
$ 25  6
$ 25 11
$ 25 12
$ 25 18
$ 25 25
$ 26  8
$ 27  2
$ 27  3
$ 27 16
$ 27 18
$ 27 20
$ 28  7
$ 28 11
$ 28 14
$ 28 19

